certificates/rado_a7_c67_N14.cnf
c Rad2 upper bound instance: x1 + 7*x2 - x3 = 67, interval [1,14]
p cnf 14 54
1 4 10 0
-1 -4 -10 0
1 11 0
-1 -11 0
2 5 10 0
-2 -5 -10 0
2 11 12 0
-2 -11 -12 0
3 6 10 0
-3 -6 -10 0
3 11 13 0
-3 -11 -13 0
4 7 10 0
-4 -7 -10 0
4 11 14 0
-4 -11 -14 0
1 5 9 0
-1 -5 -9 0
5 8 10 0
-5 -8 -10 0
2 6 9 0
-2 -6 -9 0
6 9 10 0
-6 -9 -10 0
3 7 9 0
-3 -7 -9 0
7 10 0
-7 -10 0
4 8 9 0
-4 -8 -9 0
8 10 11 0
-8 -10 -11 0
5 9 0
-5 -9 0
9 10 12 0
-9 -10 -12 0
10 13 0
-10 -13 0
7 9 11 0
-7 -9 -11 0
10 11 14 0
-10 -11 -14 0
1 8 12 0
-1 -8 -12 0
8 9 12 0
-8 -9 -12 0
2 8 13 0
-2 -8 -13 0
9 13 0
-9 -13 0
3 8 14 0
-3 -8 -14 0
9 10 14 0
-9 -10 -14 0
