certificates/rado_a7_c67_N14.drat
-11 10 -14 0
-13 -14 0
-14 0
11 -10 0
-9 -10 0
d -9 -12 -10 0
13 0
-10 0
-9 0
7 0
11 0
0
